$molecule
0 1
  N   -0.3942636   -0.4834903    0.0063799
  N    0.4023725    0.4764478   -0.0088542
  C   -1.8004155   -0.2921852   -0.0259223
  C    1.8084686    0.2841123    0.0225151
  C   -2.6364969   -1.4166405   -0.0047855
  C    2.3818313   -1.0020459    0.0709514
  C   -2.3750535    0.9932060   -0.0786548
  C    2.6457928    1.4077422    0.0044518
  C   -4.0263973   -1.2649738   -0.0356895
  C    3.7721976   -1.1508838    0.1005058
  C   -3.7656433    1.1403433   -0.1094710
  C    4.0355951    1.2543448    0.0341784
  C   -4.5905582    0.0124697   -0.0880148
  C    4.5983516   -0.0239145    0.0821422
  H   -2.2089250   -2.4107944    0.0356815
  H    1.7591736   -1.8874307    0.0857993
  H   -1.7533066    1.8791854   -0.0960576
  H    2.2193874    2.4025224   -0.0327051
  H   -4.6659642   -2.1380051   -0.0190981
  H    4.2092366   -2.1404214    0.1376279
  H   -4.2038757    2.1292167   -0.1500374
  H    4.6762347    2.1266312    0.0199890
  H   -5.6664247    0.1283005   -0.1119396
  H    5.6740900   -0.1411327    0.1050528
$end

$rem
   BASIS  =  6-31+G*
   GUI  =  2
   JOBTYPE  =  OPT
   METHOD  =  wB97X-D
   SCF_CONVERGENCE  =  8
$end
