$molecule
0 1
  N    0.6198703   -2.0063510    0.0357285
  N   -0.6199107   -2.0063484   -0.0355631
  C    1.3897818   -0.7982304    0.1445157
  C   -1.3898039   -0.7982250   -0.1444347
  C    1.1691515    0.1463176    1.1493039
  C   -1.1690925    0.1462786   -1.1492442
  C    2.4816277   -0.6732729   -0.7138430
  C   -2.4816946   -0.6732110    0.7138588
  C    2.0245268    1.2379208    1.2609537
  C   -2.0244358    1.2378978   -1.2609840
  C    3.3133572    0.4381094   -0.6153864
  C   -3.3133939    0.4381859    0.6153111
  C    3.0875351    1.3957996    0.3723568
  C   -3.0874923    1.3958345   -0.3724547
  H    0.3375686    0.0259621    1.8363428
  H   -0.3374648    0.0258776   -1.8362222
  H    2.6635622   -1.4455302   -1.4556806
  H   -2.6636891   -1.4454362    1.4557154
  H    1.8542020    1.9722570    2.0428872
  H   -1.8540446    1.9722045   -2.0429307
  H    4.1495040    0.5478688   -1.2997227
  H   -4.1495738    0.5479941    1.2995992
  H    3.7454165    2.2553694    0.4592472
  H   -3.7453473    2.2554175   -0.4594138
$end

$rem
   JOB_TYPE        = SP
   METHOD          = wB97X-D
   BASIS           = 6-31+G*
   GUI             = 2

   CIS_N_ROOTS     = 10
   CIS_SINGLETS    = TRUE
   CIS_TRIPLETS    = FALSE

   SCF_ALGORITHM   = diis
   MAX_SCF_CYCLES  = 200
   SCF_CONVERGENCE = 8
   THRESH          = 12
$end
