$molecule
0 1
  N   -0.6341561    0.2430362    0.2833713
  N   -0.0228877   -0.2905979   -0.6755585
  C   -2.0492564    0.3349248    0.4463919
  C   -0.5532951   -0.5800019   -1.9687745
  C   -2.9319945   -0.6548398   -0.0334429
  C   -1.5432014    0.2196745   -2.5767847
  C   -2.5707416    1.4246140    1.1574955
  C   -0.0285311   -1.6693785   -2.6779493
  C   -4.3093699   -0.5308987    0.1730624
  C   -2.0131345   -0.0918125   -3.8563469
  C   -3.9488756    1.5452256    1.3613618
  C   -0.5016089   -1.9779307   -3.9571499
  C   -4.8179096    0.5699484    0.8664032
  C   -1.4957773   -1.1917946   -4.5445131
  H   -2.5627053   -1.5254944   -0.5578656
  H   -1.9476692    1.0867730   -2.0728241
  H   -1.9062464    2.1848984    1.5487842
  H    0.7448851   -2.2836977   -2.2339505
  H   -4.9824086   -1.2918031   -0.2005314
  H   -2.7755276    0.5233892   -4.3165764
  H   -4.3426795    2.3940614    1.9053023
  H   -0.0954591   -2.8255334   -4.4938904
  H   -5.8842527    0.6634112    1.0264630
  H   -1.8598271   -1.4304835   -5.5354373
$end

$rem
   BASIS  =  6-31+G*
   GUI  =  2
   JOBTYPE  =  OPT
   METHOD  =  wB97X-D
   THRESH = 12
   SCF_CONVERGENCE  =  8
$end

