$molecule
0 1
  N    0.3822231    0.4920995    0.0007500
  N   -0.3822089   -0.4918314    0.0007486
  C    1.7694028    0.1743465    0.0002534
  C   -1.7693742   -0.1740353    0.0002525
  C    2.6306520    1.2719790    0.0009842
  C   -2.2852508    1.1274736   -0.0009287
  C    2.2853286   -1.1271433   -0.0009278
  C   -2.6306598   -1.2716382    0.0009833
  C    4.0094166    1.0771244    0.0006106
  C   -3.6614368    1.3148159   -0.0013290
  C    3.6615221   -1.3144352   -0.0013283
  C   -4.0094172   -1.0767329    0.0006101
  C    4.5259449   -0.2161459   -0.0005590
  C   -4.5258984    0.2165566   -0.0005595
  H    2.2011200    2.2693569    0.0018543
  H   -1.6043168    1.9715410   -0.0015210
  H    1.6044267   -1.9712356   -0.0015200
  H   -2.2011637   -2.2690315    0.0018531
  H    4.6768347    1.9337740    0.0012087
  H   -4.0679365    2.3222128   -0.0022581
  H    4.0680574   -2.3218177   -0.0022572
  H   -4.6768656   -1.9333589    0.0012083
  H    5.6009389   -0.3728723   -0.0008870
  H   -5.6008866    0.3733224   -0.0008873
$end

$rem
   JOB_TYPE        = SP
   METHOD          = wB97X-D
   BASIS           = 6-31+G*
   GUI             = 2

   CIS_N_ROOTS     = 10
   CIS_SINGLETS    = TRUE
   CIS_TRIPLETS    = FALSE

   SCF_ALGORITHM   = diis
   MAX_SCF_CYCLES  = 200
   SCF_CONVERGENCE = 8
   THRESH          = 12

   SOLVENT_METHOD  = PCM
$end

$pcm
   Theory CPCM
   Method SWIG
   Solver Inversion
$end

$solvent
   Dielectric 7.6
$end

